tacasBenchmarks/factorization/in_cnf/factorization10.v_rsynth.cnf
c .nnodes 80
c .nvars 20
c .nsuppvars 20
c .ids  0 1 2 3 4 5 6 7 8 9 10 11 12 13 14 15 16 17 18 19 
c .cnfids  132 131 133 134 135 136 137 138 139 140 130 129 125 128 124 123 122 121 126 127 
c .nroots 1
c .rootids 2
p cnf 141 447
3 132 4 93 -97 0
3 -132 -4 93 -97 0
-3 -93 0
-3 132 -4 0
-3 97 0
-3 -132 4 0
4 -5 -88 0
4 5 88 0
-4 5 -88 0
-4 -5 88 0
5 6 71 0
-5 -6 0
-5 -71 0
6 -124 -130 -7 0
-6 124 0
-6 130 0
-6 7 0
7 -8 -66 0
7 8 66 0
-7 8 -66 0
-7 -8 66 0
8 9 49 0
-8 -9 0
-8 -49 0
9 -124 -129 -10 0
-9 124 0
-9 129 0
-9 10 0
10 -11 -47 0
10 11 47 0
-10 11 -47 0
-10 -11 47 0
11 12 28 0
-11 -12 0
-11 -28 0
12 -124 -128 -13 0
-12 124 0
-12 128 0
-12 13 0
13 14 -15 0
13 126 -14 15 0
13 124 -14 15 0
-13 14 15 0
-13 -14 -15 0
-13 -124 -126 15 0
14 -125 -127 0
-14 125 0
-14 127 0
15 16 25 0
-15 -16 0
-15 -25 0
16 17 18 0
-16 -17 0
-16 -18 0
17 -123 -124 -126 -127 0
-17 127 0
-17 123 0
-17 126 0
-17 124 0
18 19 -22 0
-18 -19 0
-18 22 0
19 20 21 0
-19 -20 0
-19 -21 0
20 -121 -122 -126 -127 0
-20 127 0
-20 121 0
-20 126 0
-20 122 0
21 -122 -123 -126 -127 0
-21 127 0
-21 122 0
-21 126 0
-21 123 0
22 23 -24 0
22 -23 24 0
-22 -23 -24 0
-22 23 24 0
23 -124 -126 0
-23 124 0
-23 126 0
24 -123 -127 0
-24 123 0
-24 127 0
25 -26 -27 0
25 26 27 0
-25 26 -27 0
-25 -26 27 0
26 -124 -127 0
-26 124 0
-26 127 0
27 -125 -126 0
-27 125 0
-27 126 0
28 29 -45 0
-28 -29 0
-28 45 0
29 30 32 0
-29 -30 0
-29 -32 0
30 -123 -128 -31 0
-30 123 0
-30 128 0
-30 31 0
31 16 -25 0
31 -16 25 0
-31 -16 -25 0
-31 16 25 0
32 33 -43 0
-32 -33 0
-32 43 0
33 34 36 0
-33 -34 0
-33 -36 0
34 -122 -128 -35 0
-34 122 0
-34 128 0
-34 35 0
35 -19 -22 0
35 19 22 0
-35 19 -22 0
-35 -19 22 0
36 -37 -41 0
-36 37 0
-36 41 0
37 -121 -128 -38 0
-37 121 0
-37 128 0
-37 38 0
38 20 -39 40 0
38 -20 -39 -40 0
38 20 39 -40 0
-38 -20 40 0
-38 -20 39 0
-38 39 40 0
-38 20 -39 -40 0
39 -123 -126 0
-39 123 0
-39 126 0
40 -122 -127 0
-40 122 0
-40 127 0
41 35 -42 0
41 -35 42 0
-41 -35 -42 0
-41 35 42 0
42 -122 -128 0
-42 122 0
-42 128 0
43 31 -44 0
43 -31 44 0
-43 -31 -44 0
-43 31 44 0
44 -123 -128 0
-44 123 0
-44 128 0
45 46 -13 0
45 -46 13 0
-45 -46 -13 0
-45 46 13 0
46 -124 -128 0
-46 124 0
-46 128 0
47 128 -48 0
47 -125 -128 48 0
-47 125 -128 0
-47 128 48 0
-47 -128 -48 0
48 -125 -127 -15 0
48 -125 -127 -23 0
-48 125 0
-48 127 0
-48 23 15 0
49 50 -64 0
-49 -50 0
-49 64 0
50 51 53 0
-50 -51 0
-50 -53 0
51 -123 -129 -52 0
-51 123 0
-51 129 0
-51 52 0
52 -29 -45 0
52 29 45 0
-52 29 -45 0
-52 -29 45 0
53 54 -62 0
-53 -54 0
-53 62 0
54 55 57 0
-54 -55 0
-54 -57 0
55 -122 -129 -56 0
-55 122 0
-55 129 0
-55 56 0
56 -33 -43 0
56 33 43 0
-56 33 -43 0
-56 -33 43 0
57 -58 -60 0
-57 58 0
-57 60 0
58 -121 -129 -59 0
-58 121 0
-58 129 0
-58 59 0
59 37 -41 0
59 -37 41 0
-59 -37 -41 0
-59 37 41 0
60 56 -61 0
60 -56 61 0
-60 -56 -61 0
-60 56 61 0
61 -122 -129 0
-61 122 0
-61 129 0
62 63 -52 0
62 -63 52 0
-62 -63 -52 0
-62 63 52 0
63 -123 -129 0
-63 123 0
-63 129 0
64 65 -10 0
64 -65 10 0
-64 -65 -10 0
-64 65 10 0
65 -124 -129 0
-65 124 0
-65 129 0
66 -67 -68 0
66 67 68 0
-66 67 -68 0
-66 -67 68 0
67 -125 -129 0
-67 125 0
-67 129 0
68 69 70 0
-68 -69 0
-68 -70 0
69 -128 -48 0
-69 128 0
-69 48 0
70 11 -47 0
-70 -11 0
-70 47 0
71 72 -86 0
-71 -72 0
-71 86 0
72 73 75 0
-72 -73 0
-72 -75 0
73 -123 -130 -74 0
-73 123 0
-73 130 0
-73 74 0
74 -50 -64 0
74 50 64 0
-74 50 -64 0
-74 -50 64 0
75 76 -84 0
-75 -76 0
-75 84 0
76 77 79 0
-76 -77 0
-76 -79 0
77 -122 -130 -78 0
-77 122 0
-77 130 0
-77 78 0
78 -54 -62 0
78 54 62 0
-78 54 -62 0
-78 -54 62 0
79 -80 -82 0
-79 80 0
-79 82 0
80 -121 -130 -81 0
-80 121 0
-80 130 0
-80 81 0
81 58 -60 0
81 -58 60 0
-81 -58 -60 0
-81 58 60 0
82 83 -78 0
82 -83 78 0
-82 -83 -78 0
-82 83 78 0
83 -122 -130 0
-83 122 0
-83 130 0
84 85 -74 0
84 -85 74 0
-84 -85 -74 0
-84 85 74 0
85 -123 -130 0
-85 123 0
-85 130 0
86 87 -7 0
86 -87 7 0
-86 -87 -7 0
-86 87 7 0
87 -124 -130 0
-87 124 0
-87 130 0
88 -89 -90 0
88 89 90 0
-88 89 -90 0
-88 -89 90 0
89 -125 -130 0
-89 125 0
-89 130 0
90 91 92 0
-90 -91 0
-90 -92 0
91 -125 -129 68 0
-91 125 0
-91 129 0
-91 -68 0
92 8 -66 0
-92 -8 0
-92 66 0
93 -131 -94 0
93 131 94 0
-93 131 -94 0
-93 -131 94 0
94 95 96 0
-94 -95 0
-94 -96 0
95 -125 -130 90 0
-95 125 0
-95 130 0
-95 -90 0
96 5 -88 0
-96 -5 0
-96 88 0
97 133 98 99 -101 0
97 -133 -98 99 -101 0
-97 -99 0
-97 133 -98 0
-97 101 0
-97 -133 98 0
98 -72 -86 0
98 72 86 0
-98 72 -86 0
-98 -72 86 0
99 134 -100 0
99 -134 100 0
-99 -134 -100 0
-99 134 100 0
100 -76 -84 0
100 76 84 0
-100 76 -84 0
-100 -76 84 0
101 136 102 104 -106 0
101 -136 102 -104 -106 0
-101 106 0
-101 136 -104 0
-101 -102 0
-101 -136 104 0
102 135 -103 0
102 -135 103 0
-102 -135 -103 0
-102 135 103 0
103 80 -82 0
103 -80 82 0
-103 -80 -82 0
-103 80 82 0
104 81 -105 0
104 -81 105 0
-104 -81 -105 0
-104 81 105 0
105 -121 -130 0
-105 121 0
-105 130 0
106 -137 -107 -109 0
106 137 107 -109 0
-106 109 0
-106 -137 107 0
-106 137 -107 0
107 59 -108 0
107 -59 108 0
-107 -59 -108 0
-107 59 108 0
108 -121 -129 0
-108 121 0
-108 129 0
109 -138 -110 -112 0
109 138 110 -112 0
-109 112 0
-109 -138 110 0
-109 138 -110 0
110 111 -38 0
110 -111 38 0
-110 -111 -38 0
-110 111 38 0
111 -121 -128 0
-111 121 0
-111 128 0
112 139 113 116 -118 0
112 -139 -113 116 -118 0
-112 -116 0
-112 139 -113 0
-112 118 0
-112 -139 113 0
113 114 -115 0
113 -114 115 0
-113 -114 -115 0
-113 114 115 0
114 -122 -126 0
-114 122 0
-114 126 0
115 -121 -127 0
-115 121 0
-115 127 0
116 -126 -117 0
116 -121 -126 140 0
-116 126 0
-116 -140 117 0
-116 121 117 0
117 127 128 129 130 0
-117 -130 0
-117 -129 0
-117 -127 0
-117 -128 0
118 140 119 0
118 -121 -126 119 0
-118 -119 0
-118 126 -140 0
-118 121 -140 0
119 -121 122 125 -120 0
-119 120 0
-119 -125 0
-119 121 0
-119 -122 0
120 123 124 0
-120 -123 0
-120 -124 0
141 0
2 -3 0
-2 3 0
2 0

